n = 16;
k = 4;
% init = [[8, 7, 15, 13, 9, 12], [14, 11, 10, 4, 5, 6], [3, 16, 1], [2]];
% goal = [[1, 13, 5, 3, 15, 7, 10, 16, 12, 8, 4, 14, 2], [6, 9, 11], [], []];
start = [0, 0, 16, 5, 6, 0, 15, 7, 12, 4, 10, 0, 9, 11, 13, 1];
end = [13, 0, 15, 14, 3, 9, 10, 4, 11, 16, 0, 8, 5, 2, 7, 12];
